(declare-const havoc Int)
(declare-const j Int)
(declare-const i Int)
(declare-const |j'| Int)
(declare-const tmp___0 Int)
(declare-const term_to_project_onto0_integralized Int)
(declare-const term_to_project_onto_integralized Int)
(declare-const term_to_project_onto1_integralized Int)
(declare-const |i'| Int)
(declare-const |tmp___0'| Int)
(assert (and (<= (- j) 0) (<= (- i) 0)
               (or (<= (+ havoc 1) 0) (<= (+ (- havoc) 1) 0))
               (<= (+ i -999999) 0) (= (+ |tmp___0'| (- havoc)) 0)
               (= (+ |j'| (- j) -1) 0) (= (+ |i'| (- i) -1) 0)
               (= (+ term_to_project_onto1_integralized (- (+ |i'| (- i)))) 0)
               (= (+ term_to_project_onto0_integralized (- (+ |j'| (- j)))) 0)
               (= (+ term_to_project_onto_integralized
                       (- (+ |tmp___0'| (- tmp___0)))) 0)))